229 300 223 228 237 237 229 209 214 245 240 226 211 245 229 234 225 249 211 204 200 243 242 247 212 247 243 250 201 237 247 213 224 220 241 211 231 244 245 245 239 235 246 224 203 249 208 229 221 219 207 222 236 249 218 248 245 236 222 221 222 218 234 247 212 250 232 218 243 226 212 205 210 232 230 214 205 238 217 226 231 224 222 241 222 215 212 241 200 234 236 247 227 220 243 239 219 224 206 236 200 244 242 235 250 221 223 204 233 240 205 238 238 201 228 234 216 214 250 241 223 235 238 250 229 230 238 222 229 219 208 203 237 250 238 236 245 211 215 227 225 245 239 238 246 216 246 237 204 219 227 227 229 214 226 207 219 239 230 248 207 212 200 218 236 212 203 230 223 243 231 223 237 219 235 207 209 204 244 213 224 220 215 202 209 241 234 228 203 238 225 235 250 250 202 209 211 231 239 209 223 244 206 235 237 241 242 246 245 209 234 243 229 249 245 212 213 203 240 217 241 214 201 215 213 229 224 250 209 238 208 